c DESCRIPTION: Quasi-random coloring problem
c CODE SOURCE: Joseph Culberson (joe@cs.ualberta.ca)
c Specifications: 
c   Random seed: 562342
c   No hidden coloring
c   Probability: 0.900000
c   random IID graph
c   Degree Information:
c   Min:82 Avg:88.760000 Max:96 Std:3.175280
c No verification required.
c Creation Date: Fri Aug  8 11:40:28 2003
p edge 100 4438
c no cheat
e 2 1
e 3 1
e 4 1
e 4 2
e 4 3
e 5 1
e 5 2
e 5 3
e 5 4
e 6 1
e 6 2
e 6 3
e 6 4
e 6 5
e 7 1
e 7 2
e 7 3
e 7 4
e 7 5
e 7 6
e 8 1
e 8 2
e 8 3
e 8 5
e 8 6
e 8 7
e 9 1
e 9 2
e 9 3
e 9 4
e 9 5
e 9 6
e 9 7
e 9 8
e 10 1
e 10 2
e 10 5
e 10 6
e 10 7
e 10 8
e 10 9
e 11 1
e 11 2
e 11 3
e 11 4
e 11 5
e 11 6
e 11 7
e 11 8
e 11 9
e 11 10
e 12 1
e 12 2
e 12 4
e 12 5
e 12 6
e 12 7
e 12 8
e 12 9
e 12 10
e 12 11
e 13 1
e 13 2
e 13 3
e 13 4
e 13 5
e 13 6
e 13 7
e 13 9
e 13 10
e 13 12
e 14 1
e 14 2
e 14 4
e 14 5
e 14 6
e 14 7
e 14 8
e 14 11
e 14 12
e 14 13
e 15 1
e 15 2
e 15 3
e 15 4
e 15 5
e 15 6
e 15 8
e 15 9
e 15 10
e 15 11
e 15 12
e 15 13
e 15 14
e 16 1
e 16 2
e 16 3
e 16 4
e 16 5
e 16 8
e 16 9
e 16 10
e 16 11
e 16 12
e 16 13
e 16 14
e 17 1
e 17 2
e 17 3
e 17 4
e 17 5
e 17 6
e 17 7
e 17 9
e 17 10
e 17 13
e 17 14
e 17 15
e 17 16
e 18 1
e 18 2
e 18 3
e 18 4
e 18 5
e 18 6
e 18 8
e 18 9
e 18 10
e 18 12
e 18 13
e 18 14
e 18 15
e 18 16
e 18 17
e 19 1
e 19 2
e 19 3
e 19 4
e 19 5
e 19 6
e 19 7
e 19 8
e 19 9
e 19 10
e 19 11
e 19 12
e 19 13
e 19 14
e 19 15
e 19 16
e 19 17
e 19 18
e 20 1
e 20 2
e 20 3
e 20 4
e 20 5
e 20 6
e 20 8
e 20 10
e 20 11
e 20 12
e 20 13
e 20 14
e 20 15
e 20 16
e 20 17
e 20 18
e 20 19
e 21 1
e 21 2
e 21 3
e 21 4
e 21 5
e 21 6
e 21 7
e 21 8
e 21 9
e 21 10
e 21 11
e 21 12
e 21 13
e 21 14
e 21 15
e 21 16
e 21 17
e 21 18
e 21 19
e 22 1
e 22 3
e 22 4
e 22 5
e 22 6
e 22 7
e 22 8
e 22 9
e 22 12
e 22 13
e 22 14
e 22 15
e 22 17
e 22 18
e 22 19
e 22 20
e 22 21
e 23 1
e 23 2
e 23 3
e 23 4
e 23 5
e 23 7
e 23 8
e 23 9
e 23 10
e 23 11
e 23 12
e 23 13
e 23 14
e 23 15
e 23 16
e 23 17
e 23 18
e 23 20
e 23 21
e 23 22
e 24 2
e 24 3
e 24 5
e 24 7
e 24 8
e 24 9
e 24 10
e 24 11
e 24 12
e 24 13
e 24 14
e 24 15
e 24 16
e 24 17
e 24 18
e 24 19
e 24 20
e 24 21
e 24 22
e 25 1
e 25 2
e 25 3
e 25 4
e 25 6
e 25 7
e 25 8
e 25 9
e 25 10
e 25 11
e 25 13
e 25 14
e 25 15
e 25 16
e 25 17
e 25 18
e 25 19
e 25 20
e 25 21
e 25 22
e 25 23
e 26 1
e 26 2
e 26 3
e 26 4
e 26 5
e 26 6
e 26 7
e 26 8
e 26 9
e 26 10
e 26 11
e 26 12
e 26 14
e 26 15
e 26 16
e 26 17
e 26 18
e 26 19
e 26 20
e 26 21
e 26 23
e 26 24
e 26 25
e 27 2
e 27 3
e 27 4
e 27 5
e 27 6
e 27 7
e 27 8
e 27 9
e 27 10
e 27 11
e 27 13
e 27 14
e 27 15
e 27 16
e 27 17
e 27 18
e 27 19
e 27 20
e 27 21
e 27 22
e 27 23
e 27 24
e 27 25
e 27 26
e 28 1
e 28 2
e 28 4
e 28 5
e 28 7
e 28 8
e 28 9
e 28 10
e 28 11
e 28 12
e 28 13
e 28 14
e 28 15
e 28 16
e 28 17
e 28 18
e 28 20
e 28 21
e 28 22
e 28 23
e 28 24
e 28 25
e 28 26
e 28 27
e 29 1
e 29 2
e 29 3
e 29 4
e 29 5
e 29 6
e 29 7
e 29 9
e 29 10
e 29 11
e 29 13
e 29 14
e 29 15
e 29 16
e 29 17
e 29 18
e 29 19
e 29 20
e 29 21
e 29 22
e 29 23
e 29 24
e 29 25
e 29 26
e 29 28
e 30 1
e 30 2
e 30 3
e 30 4
e 30 5
e 30 7
e 30 8
e 30 9
e 30 10
e 30 11
e 30 12
e 30 13
e 30 14
e 30 15
e 30 16
e 30 17
e 30 18
e 30 19
e 30 20
e 30 21
e 30 22
e 30 23
e 30 24
e 30 26
e 30 27
e 30 29
e 31 1
e 31 2
e 31 3
e 31 4
e 31 5
e 31 7
e 31 8
e 31 9
e 31 10
e 31 11
e 31 12
e 31 13
e 31 14
e 31 15
e 31 16
e 31 17
e 31 18
e 31 19
e 31 20
e 31 21
e 31 22
e 31 23
e 31 24
e 31 25
e 31 26
e 31 27
e 31 28
e 31 29
e 31 30
e 32 1
e 32 2
e 32 4
e 32 5
e 32 6
e 32 7
e 32 8
e 32 9
e 32 10
e 32 11
e 32 12
e 32 13
e 32 14
e 32 15
e 32 17
e 32 18
e 32 19
e 32 20
e 32 21
e 32 23
e 32 24
e 32 25
e 32 26
e 32 28
e 32 29
e 32 30
e 32 31
e 33 1
e 33 2
e 33 3
e 33 4
e 33 5
e 33 6
e 33 7
e 33 8
e 33 9
e 33 10
e 33 11
e 33 12
e 33 13
e 33 14
e 33 15
e 33 16
e 33 17
e 33 18
e 33 20
e 33 21
e 33 22
e 33 23
e 33 25
e 33 26
e 33 27
e 33 28
e 33 29
e 33 30
e 33 31
e 34 1
e 34 2
e 34 4
e 34 5
e 34 7
e 34 8
e 34 9
e 34 10
e 34 13
e 34 14
e 34 15
e 34 17
e 34 19
e 34 20
e 34 21
e 34 22
e 34 23
e 34 24
e 34 26
e 34 27
e 34 28
e 34 29
e 34 30
e 34 31
e 34 32
e 34 33
e 35 1
e 35 2
e 35 3
e 35 4
e 35 5
e 35 6
e 35 7
e 35 8
e 35 9
e 35 10
e 35 11
e 35 12
e 35 13
e 35 14
e 35 15
e 35 16
e 35 17
e 35 18
e 35 19
e 35 21
e 35 22
e 35 23
e 35 24
e 35 25
e 35 26
e 35 27
e 35 28
e 35 29
e 35 30
e 35 31
e 35 32
e 36 1
e 36 2
e 36 3
e 36 4
e 36 5
e 36 6
e 36 8
e 36 9
e 36 10
e 36 11
e 36 13
e 36 14
e 36 15
e 36 16
e 36 17
e 36 18
e 36 19
e 36 20
e 36 21
e 36 22
e 36 23
e 36 24
e 36 25
e 36 26
e 36 27
e 36 28
e 36 29
e 36 30
e 36 32
e 36 33
e 36 34
e 36 35
e 37 1
e 37 2
e 37 3
e 37 4
e 37 5
e 37 6
e 37 7
e 37 8
e 37 9
e 37 11
e 37 12
e 37 13
e 37 14
e 37 16
e 37 17
e 37 18
e 37 19
e 37 20
e 37 21
e 37 22
e 37 23
e 37 24
e 37 25
e 37 27
e 37 29
e 37 30
e 37 31
e 37 32
e 37 33
e 37 34
e 37 35
e 37 36
e 38 1
e 38 3
e 38 4
e 38 5
e 38 6
e 38 8
e 38 9
e 38 10
e 38 11
e 38 13
e 38 14
e 38 15
e 38 17
e 38 18
e 38 19
e 38 20
e 38 21
e 38 22
e 38 23
e 38 24
e 38 25
e 38 26
e 38 29
e 38 32
e 38 33
e 38 34
e 38 35
e 38 37
e 39 1
e 39 2
e 39 3
e 39 4
e 39 5
e 39 8
e 39 9
e 39 10
e 39 11
e 39 13
e 39 14
e 39 15
e 39 16
e 39 17
e 39 18
e 39 19
e 39 20
e 39 21
e 39 22
e 39 23
e 39 24
e 39 25
e 39 26
e 39 27
e 39 28
e 39 29
e 39 30
e 39 31
e 39 32
e 39 33
e 39 34
e 39 35
e 39 36
e 39 37
e 39 38
e 40 3
e 40 4
e 40 5
e 40 8
e 40 9
e 40 10
e 40 11
e 40 12
e 40 13
e 40 14
e 40 15
e 40 16
e 40 17
e 40 18
e 40 19
e 40 20
e 40 22
e 40 23
e 40 24
e 40 25
e 40 26
e 40 27
e 40 28
e 40 29
e 40 30
e 40 31
e 40 32
e 40 33
e 40 34
e 40 36
e 40 37
e 40 38
e 40 39
e 41 1
e 41 2
e 41 3
e 41 4
e 41 5
e 41 6
e 41 7
e 41 8
e 41 9
e 41 10
e 41 11
e 41 12
e 41 13
e 41 14
e 41 15
e 41 16
e 41 17
e 41 18
e 41 20
e 41 21
e 41 22
e 41 23
e 41 25
e 41 26
e 41 27
e 41 28
e 41 29
e 41 30
e 41 31
e 41 32
e 41 33
e 41 34
e 41 35
e 41 36
e 41 37
e 41 38
e 41 39
e 41 40
e 42 1
e 42 2
e 42 3
e 42 4
e 42 5
e 42 7
e 42 9
e 42 10
e 42 11
e 42 12
e 42 13
e 42 14
e 42 15
e 42 16
e 42 18
e 42 19
e 42 20
e 42 21
e 42 22
e 42 23
e 42 24
e 42 25
e 42 26
e 42 27
e 42 28
e 42 29
e 42 30
e 42 31
e 42 32
e 42 33
e 42 34
e 42 35
e 42 36
e 42 37
e 42 38
e 42 39
e 42 40
e 42 41
e 43 1
e 43 2
e 43 3
e 43 4
e 43 5
e 43 6
e 43 7
e 43 8
e 43 10
e 43 11
e 43 13
e 43 14
e 43 15
e 43 16
e 43 17
e 43 18
e 43 19
e 43 20
e 43 21
e 43 22
e 43 23
e 43 24
e 43 25
e 43 26
e 43 27
e 43 28
e 43 29
e 43 30
e 43 31
e 43 32
e 43 33
e 43 34
e 43 35
e 43 36
e 43 37
e 43 38
e 43 39
e 43 40
e 43 41
e 43 42
e 44 1
e 44 2
e 44 3
e 44 4
e 44 5
e 44 6
e 44 7
e 44 8
e 44 9
e 44 10
e 44 11
e 44 12
e 44 14
e 44 15
e 44 16
e 44 17
e 44 18
e 44 19
e 44 20
e 44 21
e 44 22
e 44 23
e 44 24
e 44 25
e 44 26
e 44 27
e 44 28
e 44 30
e 44 31
e 44 32
e 44 33
e 44 34
e 44 35
e 44 36
e 44 37
e 44 38
e 44 39
e 44 40
e 44 41
e 44 42
e 44 43
e 45 1
e 45 2
e 45 4
e 45 5
e 45 6
e 45 7
e 45 8
e 45 9
e 45 10
e 45 11
e 45 13
e 45 14
e 45 15
e 45 16
e 45 17
e 45 18
e 45 19
e 45 21
e 45 22
e 45 23
e 45 24
e 45 25
e 45 27
e 45 28
e 45 29
e 45 30
e 45 31
e 45 32
e 45 33
e 45 35
e 45 36
e 45 37
e 45 38
e 45 39
e 45 40
e 45 41
e 45 42
e 45 43
e 45 44
e 46 1
e 46 2
e 46 3
e 46 4
e 46 5
e 46 6
e 46 7
e 46 8
e 46 11
e 46 12
e 46 13
e 46 14
e 46 15
e 46 16
e 46 18
e 46 19
e 46 20
e 46 21
e 46 22
e 46 23
e 46 24
e 46 25
e 46 26
e 46 28
e 46 30
e 46 31
e 46 32
e 46 33
e 46 34
e 46 35
e 46 36
e 46 37
e 46 38
e 46 39
e 46 40
e 46 41
e 46 42
e 46 43
e 46 44
e 46 45
e 47 1
e 47 2
e 47 3
e 47 4
e 47 5
e 47 6
e 47 7
e 47 9
e 47 10
e 47 11
e 47 12
e 47 15
e 47 16
e 47 17
e 47 19
e 47 20
e 47 21
e 47 22
e 47 23
e 47 24
e 47 25
e 47 27
e 47 28
e 47 29
e 47 30
e 47 31
e 47 32
e 47 35
e 47 36
e 47 37
e 47 39
e 47 40
e 47 41
e 47 42
e 47 43
e 47 44
e 47 45
e 47 46
e 48 1
e 48 2
e 48 3
e 48 4
e 48 6
e 48 7
e 48 8
e 48 9
e 48 10
e 48 11
e 48 12
e 48 13
e 48 14
e 48 15
e 48 16
e 48 17
e 48 18
e 48 21
e 48 23
e 48 24
e 48 26
e 48 27
e 48 28
e 48 29
e 48 31
e 48 32
e 48 33
e 48 34
e 48 35
e 48 37
e 48 38
e 48 39
e 48 40
e 48 41
e 48 42
e 48 43
e 48 44
e 48 45
e 48 46
e 48 47
e 49 1
e 49 2
e 49 3
e 49 4
e 49 5
e 49 7
e 49 8
e 49 10
e 49 11
e 49 12
e 49 14
e 49 15
e 49 16
e 49 17
e 49 18
e 49 19
e 49 20
e 49 22
e 49 23
e 49 24
e 49 25
e 49 26
e 49 27
e 49 28
e 49 29
e 49 30
e 49 31
e 49 32
e 49 33
e 49 36
e 49 37
e 49 39
e 49 40
e 49 41
e 49 42
e 49 43
e 49 44
e 49 46
e 49 47
e 49 48
e 50 1
e 50 2
e 50 3
e 50 4
e 50 5
e 50 6
e 50 7
e 50 8
e 50 9
e 50 10
e 50 11
e 50 12
e 50 13
e 50 14
e 50 15
e 50 16
e 50 17
e 50 18
e 50 19
e 50 20
e 50 21
e 50 23
e 50 24
e 50 25
e 50 26
e 50 27
e 50 28
e 50 29
e 50 30
e 50 31
e 50 32
e 50 33
e 50 35
e 50 36
e 50 38
e 50 39
e 50 40
e 50 43
e 50 44
e 50 45
e 50 46
e 50 47
e 50 48
e 50 49
e 51 1
e 51 2
e 51 3
e 51 4
e 51 5
e 51 6
e 51 7
e 51 8
e 51 9
e 51 10
e 51 11
e 51 12
e 51 13
e 51 14
e 51 15
e 51 16
e 51 18
e 51 19
e 51 20
e 51 21
e 51 23
e 51 24
e 51 25
e 51 26
e 51 27
e 51 28
e 51 29
e 51 30
e 51 32
e 51 33
e 51 34
e 51 35
e 51 36
e 51 37
e 51 38
e 51 39
e 51 40
e 51 41
e 51 42
e 51 43
e 51 44
e 51 45
e 51 46
e 51 47
e 51 48
e 51 49
e 51 50
e 52 1
e 52 2
e 52 3
e 52 4
e 52 5
e 52 6
e 52 7
e 52 8
e 52 9
e 52 10
e 52 11
e 52 12
e 52 13
e 52 14
e 52 15
e 52 16
e 52 17
e 52 18
e 52 19
e 52 20
e 52 21
e 52 22
e 52 23
e 52 24
e 52 25
e 52 26
e 52 27
e 52 28
e 52 29
e 52 30
e 52 32
e 52 33
e 52 34
e 52 35
e 52 37
e 52 39
e 52 40
e 52 41
e 52 42
e 52 44
e 52 45
e 52 46
e 52 47
e 52 48
e 52 49
e 52 50
e 52 51
e 53 1
e 53 2
e 53 3
e 53 4
e 53 5
e 53 6
e 53 7
e 53 8
e 53 9
e 53 10
e 53 11
e 53 12
e 53 13
e 53 14
e 53 15
e 53 16
e 53 18
e 53 19
e 53 20
e 53 21
e 53 22
e 53 23
e 53 24
e 53 25
e 53 26
e 53 27
e 53 28
e 53 29
e 53 30
e 53 31
e 53 32
e 53 33
e 53 34
e 53 35
e 53 36
e 53 37
e 53 38
e 53 39
e 53 40
e 53 41
e 53 42
e 53 44
e 53 45
e 53 46
e 53 48
e 53 49
e 53 50
e 53 51
e 54 1
e 54 2
e 54 3
e 54 4
e 54 5
e 54 6
e 54 10
e 54 11
e 54 12
e 54 13
e 54 14
e 54 15
e 54 16
e 54 17
e 54 18
e 54 19
e 54 20
e 54 22
e 54 23
e 54 24
e 54 25
e 54 26
e 54 27
e 54 28
e 54 29
e 54 30
e 54 31
e 54 32
e 54 33
e 54 34
e 54 35
e 54 36
e 54 37
e 54 38
e 54 39
e 54 40
e 54 41
e 54 42
e 54 43
e 54 44
e 54 45
e 54 46
e 54 47
e 54 48
e 54 49
e 54 50
e 54 51
e 54 52
e 54 53
e 55 1
e 55 2
e 55 3
e 55 4
e 55 5
e 55 6
e 55 7
e 55 8
e 55 9
e 55 10
e 55 11
e 55 12
e 55 13
e 55 14
e 55 15
e 55 16
e 55 18
e 55 19
e 55 20
e 55 21
e 55 22
e 55 23
e 55 24
e 55 26
e 55 27
e 55 29
e 55 30
e 55 31
e 55 32
e 55 33
e 55 34
e 55 35
e 55 36
e 55 37
e 55 38
e 55 40
e 55 42
e 55 43
e 55 44
e 55 45
e 55 46
e 55 47
e 55 49
e 55 50
e 55 51
e 55 52
e 55 53
e 56 1
e 56 3
e 56 4
e 56 5
e 56 6
e 56 7
e 56 8
e 56 9
e 56 11
e 56 12
e 56 13
e 56 14
e 56 15
e 56 16
e 56 17
e 56 18
e 56 20
e 56 21
e 56 22
e 56 23
e 56 24
e 56 25
e 56 26
e 56 27
e 56 28
e 56 29
e 56 30
e 56 31
e 56 32
e 56 33
e 56 34
e 56 35
e 56 36
e 56 37
e 56 38
e 56 39
e 56 40
e 56 41
e 56 43
e 56 44
e 56 45
e 56 46
e 56 47
e 56 48
e 56 49
e 56 50
e 56 51
e 56 54
e 56 55
e 57 1
e 57 2
e 57 3
e 57 4
e 57 5
e 57 6
e 57 7
e 57 8
e 57 9
e 57 10
e 57 11
e 57 12
e 57 13
e 57 14
e 57 17
e 57 18
e 57 19
e 57 20
e 57 21
e 57 22
e 57 23
e 57 24
e 57 25
e 57 26
e 57 28
e 57 30
e 57 31
e 57 32
e 57 33
e 57 34
e 57 35
e 57 36
e 57 37
e 57 38
e 57 39
e 57 40
e 57 42
e 57 43
e 57 44
e 57 45
e 57 47
e 57 48
e 57 49
e 57 50
e 57 51
e 57 52
e 57 53
e 57 54
e 57 55
e 57 56
e 58 1
e 58 2
e 58 3
e 58 4
e 58 5
e 58 6
e 58 7
e 58 8
e 58 9
e 58 10
e 58 11
e 58 12
e 58 13
e 58 14
e 58 15
e 58 16
e 58 17
e 58 18
e 58 19
e 58 20
e 58 21
e 58 22
e 58 23
e 58 24
e 58 25
e 58 26
e 58 27
e 58 28
e 58 29
e 58 31
e 58 32
e 58 34
e 58 35
e 58 36
e 58 37
e 58 38
e 58 39
e 58 40
e 58 41
e 58 42
e 58 43
e 58 44
e 58 45
e 58 46
e 58 47
e 58 48
e 58 49
e 58 50
e 58 51
e 58 52
e 58 53
e 58 54
e 58 55
e 58 56
e 58 57
e 59 1
e 59 3
e 59 4
e 59 5
e 59 6
e 59 7
e 59 8
e 59 9
e 59 10
e 59 11
e 59 12
e 59 13
e 59 14
e 59 15
e 59 16
e 59 17
e 59 18
e 59 19
e 59 20
e 59 21
e 59 23
e 59 24
e 59 25
e 59 26
e 59 27
e 59 28
e 59 29
e 59 30
e 59 31
e 59 32
e 59 33
e 59 34
e 59 35
e 59 36
e 59 37
e 59 38
e 59 39
e 59 40
e 59 41
e 59 42
e 59 43
e 59 44
e 59 45
e 59 46
e 59 47
e 59 48
e 59 49
e 59 50
e 59 51
e 59 52
e 59 53
e 59 54
e 59 55
e 59 57
e 59 58
e 60 1
e 60 2
e 60 3
e 60 4
e 60 5
e 60 6
e 60 7
e 60 8
e 60 9
e 60 10
e 60 11
e 60 12
e 60 13
e 60 14
e 60 15
e 60 16
e 60 18
e 60 19
e 60 20
e 60 21
e 60 23
e 60 24
e 60 25
e 60 26
e 60 28
e 60 29
e 60 30
e 60 32
e 60 33
e 60 34
e 60 36
e 60 37
e 60 38
e 60 39
e 60 40
e 60 41
e 60 42
e 60 43
e 60 44
e 60 45
e 60 46
e 60 47
e 60 49
e 60 50
e 60 52
e 60 53
e 60 54
e 60 55
e 60 56
e 60 57
e 60 58
e 60 59
e 61 1
e 61 2
e 61 3
e 61 4
e 61 6
e 61 7
e 61 8
e 61 9
e 61 10
e 61 11
e 61 13
e 61 14
e 61 15
e 61 16
e 61 18
e 61 19
e 61 20
e 61 21
e 61 22
e 61 23
e 61 24
e 61 25
e 61 26
e 61 27
e 61 28
e 61 29
e 61 30
e 61 32
e 61 33
e 61 34
e 61 35
e 61 36
e 61 37
e 61 39
e 61 40
e 61 41
e 61 42
e 61 43
e 61 44
e 61 45
e 61 47
e 61 48
e 61 49
e 61 50
e 61 51
e 61 53
e 61 54
e 61 55
e 61 56
e 61 57
e 61 58
e 61 59
e 61 60
e 62 1
e 62 2
e 62 3
e 62 5
e 62 7
e 62 8
e 62 9
e 62 10
e 62 11
e 62 13
e 62 14
e 62 15
e 62 16
e 62 17
e 62 18
e 62 19
e 62 20
e 62 21
e 62 22
e 62 23
e 62 24
e 62 25
e 62 26
e 62 27
e 62 28
e 62 29
e 62 30
e 62 33
e 62 34
e 62 35
e 62 36
e 62 37
e 62 38
e 62 39
e 62 40
e 62 41
e 62 44
e 62 45
e 62 46
e 62 47
e 62 48
e 62 49
e 62 50
e 62 51
e 62 52
e 62 53
e 62 54
e 62 55
e 62 56
e 62 57
e 62 58
e 62 59
e 62 60
e 62 61
e 63 1
e 63 2
e 63 4
e 63 5
e 63 6
e 63 7
e 63 8
e 63 9
e 63 10
e 63 11
e 63 12
e 63 14
e 63 15
e 63 16
e 63 17
e 63 18
e 63 19
e 63 20
e 63 21
e 63 22
e 63 23
e 63 24
e 63 25
e 63 26
e 63 27
e 63 29
e 63 30
e 63 31
e 63 32
e 63 33
e 63 34
e 63 35
e 63 36
e 63 37
e 63 39
e 63 41
e 63 42
e 63 43
e 63 44
e 63 45
e 63 46
e 63 47
e 63 48
e 63 49
e 63 50
e 63 51
e 63 52
e 63 53
e 63 54
e 63 55
e 63 56
e 63 57
e 63 59
e 63 60
e 63 61
e 63 62
e 64 1
e 64 2
e 64 3
e 64 5
e 64 6
e 64 7
e 64 8
e 64 9
e 64 10
e 64 11
e 64 12
e 64 13
e 64 15
e 64 16
e 64 17
e 64 18
e 64 19
e 64 20
e 64 21
e 64 22
e 64 23
e 64 24
e 64 25
e 64 26
e 64 27
e 64 28
e 64 29
e 64 30
e 64 32
e 64 33
e 64 34
e 64 35
e 64 36
e 64 37
e 64 38
e 64 39
e 64 41
e 64 42
e 64 43
e 64 44
e 64 45
e 64 47
e 64 48
e 64 50
e 64 51
e 64 52
e 64 53
e 64 54
e 64 55
e 64 56
e 64 57
e 64 58
e 64 59
e 64 60
e 64 61
e 64 62
e 64 63
e 65 1
e 65 2
e 65 3
e 65 4
e 65 5
e 65 6
e 65 7
e 65 8
e 65 9
e 65 10
e 65 11
e 65 12
e 65 13
e 65 14
e 65 15
e 65 16
e 65 17
e 65 18
e 65 19
e 65 20
e 65 21
e 65 22
e 65 23
e 65 24
e 65 25
e 65 26
e 65 27
e 65 28
e 65 29
e 65 30
e 65 31
e 65 32
e 65 33
e 65 34
e 65 36
e 65 37
e 65 38
e 65 39
e 65 40
e 65 41
e 65 42
e 65 43
e 65 44
e 65 45
e 65 46
e 65 47
e 65 49
e 65 50
e 65 51
e 65 52
e 65 53
e 65 54
e 65 55
e 65 56
e 65 57
e 65 58
e 65 60
e 65 61
e 65 62
e 65 63
e 65 64
e 66 2
e 66 3
e 66 4
e 66 5
e 66 6
e 66 7
e 66 8
e 66 9
e 66 12
e 66 13
e 66 15
e 66 16
e 66 17
e 66 18
e 66 19
e 66 20
e 66 21
e 66 22
e 66 23
e 66 24
e 66 25
e 66 26
e 66 27
e 66 28
e 66 29
e 66 31
e 66 32
e 66 33
e 66 34
e 66 35
e 66 37
e 66 38
e 66 39
e 66 40
e 66 41
e 66 43
e 66 44
e 66 45
e 66 46
e 66 48
e 66 49
e 66 50
e 66 51
e 66 53
e 66 54
e 66 56
e 66 57
e 66 58
e 66 59
e 66 60
e 66 62
e 66 63
e 66 64
e 66 65
e 67 1
e 67 2
e 67 3
e 67 5
e 67 6
e 67 8
e 67 9
e 67 10
e 67 11
e 67 12
e 67 14
e 67 15
e 67 16
e 67 18
e 67 19
e 67 20
e 67 21
e 67 22
e 67 25
e 67 27
e 67 28
e 67 29
e 67 30
e 67 31
e 67 32
e 67 33
e 67 34
e 67 35
e 67 36
e 67 37
e 67 39
e 67 40
e 67 41
e 67 42
e 67 43
e 67 44
e 67 45
e 67 47
e 67 49
e 67 50
e 67 51
e 67 52
e 67 53
e 67 54
e 67 55
e 67 56
e 67 57
e 67 58
e 67 59
e 67 61
e 67 62
e 67 63
e 67 64
e 67 66
e 68 1
e 68 2
e 68 3
e 68 4
e 68 5
e 68 6
e 68 7
e 68 8
e 68 9
e 68 10
e 68 11
e 68 12
e 68 13
e 68 15
e 68 16
e 68 17
e 68 18
e 68 20
e 68 22
e 68 23
e 68 24
e 68 25
e 68 26
e 68 27
e 68 28
e 68 29
e 68 30
e 68 31
e 68 32
e 68 34
e 68 35
e 68 37
e 68 38
e 68 39
e 68 40
e 68 41
e 68 42
e 68 44
e 68 45
e 68 46
e 68 47
e 68 48
e 68 49
e 68 50
e 68 51
e 68 52
e 68 53
e 68 54
e 68 55
e 68 56
e 68 57
e 68 58
e 68 59
e 68 61
e 68 62
e 68 63
e 68 64
e 68 65
e 68 66
e 68 67
e 69 1
e 69 2
e 69 3
e 69 4
e 69 5
e 69 6
e 69 7
e 69 8
e 69 9
e 69 10
e 69 11
e 69 12
e 69 13
e 69 15
e 69 16
e 69 18
e 69 19
e 69 20
e 69 21
e 69 23
e 69 24
e 69 25
e 69 26
e 69 28
e 69 29
e 69 30
e 69 31
e 69 32
e 69 33
e 69 34
e 69 35
e 69 36
e 69 37
e 69 38
e 69 39
e 69 40
e 69 41
e 69 42
e 69 43
e 69 44
e 69 45
e 69 46
e 69 48
e 69 49
e 69 50
e 69 51
e 69 52
e 69 53
e 69 54
e 69 55
e 69 56
e 69 57
e 69 58
e 69 60
e 69 61
e 69 62
e 69 63
e 69 65
e 69 66
e 69 67
e 69 68
e 70 1
e 70 2
e 70 3
e 70 5
e 70 6
e 70 7
e 70 8
e 70 9
e 70 10
e 70 11
e 70 12
e 70 13
e 70 14
e 70 15
e 70 16
e 70 17
e 70 18
e 70 19
e 70 20
e 70 21
e 70 23
e 70 24
e 70 25
e 70 26
e 70 27
e 70 28
e 70 29
e 70 30
e 70 31
e 70 32
e 70 33
e 70 34
e 70 35
e 70 36
e 70 37
e 70 38
e 70 39
e 70 40
e 70 41
e 70 42
e 70 43
e 70 45
e 70 46
e 70 47
e 70 48
e 70 49
e 70 50
e 70 51
e 70 52
e 70 53
e 70 54
e 70 55
e 70 56
e 70 57
e 70 58
e 70 59
e 70 60
e 70 62
e 70 63
e 70 65
e 70 67
e 70 68
e 70 69
e 71 1
e 71 2
e 71 3
e 71 4
e 71 5
e 71 6
e 71 7
e 71 8
e 71 9
e 71 10
e 71 11
e 71 12
e 71 13
e 71 14
e 71 15
e 71 16
e 71 17
e 71 18
e 71 19
e 71 20
e 71 21
e 71 22
e 71 23
e 71 24
e 71 25
e 71 26
e 71 27
e 71 29
e 71 30
e 71 31
e 71 32
e 71 33
e 71 34
e 71 35
e 71 36
e 71 38
e 71 39
e 71 40
e 71 41
e 71 42
e 71 43
e 71 44
e 71 45
e 71 46
e 71 47
e 71 48
e 71 49
e 71 50
e 71 51
e 71 52
e 71 53
e 71 54
e 71 55
e 71 56
e 71 57
e 71 58
e 71 59
e 71 61
e 71 62
e 71 63
e 71 64
e 71 65
e 71 66
e 71 68
e 71 69
e 71 70
e 72 1
e 72 2
e 72 3
e 72 4
e 72 5
e 72 6
e 72 7
e 72 8
e 72 9
e 72 10
e 72 11
e 72 12
e 72 13
e 72 14
e 72 15
e 72 16
e 72 17
e 72 18
e 72 19
e 72 20
e 72 21
e 72 22
e 72 23
e 72 24
e 72 25
e 72 27
e 72 28
e 72 29
e 72 30
e 72 31
e 72 32
e 72 33
e 72 34
e 72 35
e 72 36
e 72 37
e 72 38
e 72 39
e 72 40
e 72 41
e 72 42
e 72 43
e 72 44
e 72 45
e 72 46
e 72 47
e 72 48
e 72 49
e 72 50
e 72 51
e 72 52
e 72 53
e 72 54
e 72 55
e 72 56
e 72 57
e 72 58
e 72 59
e 72 60
e 72 61
e 72 62
e 72 63
e 72 64
e 72 65
e 72 66
e 72 67
e 72 68
e 72 69
e 72 70
e 72 71
e 73 1
e 73 3
e 73 4
e 73 5
e 73 7
e 73 8
e 73 9
e 73 10
e 73 11
e 73 12
e 73 13
e 73 15
e 73 16
e 73 17
e 73 18
e 73 19
e 73 20
e 73 21
e 73 22
e 73 23
e 73 24
e 73 25
e 73 26
e 73 27
e 73 29
e 73 30
e 73 31
e 73 32
e 73 34
e 73 35
e 73 36
e 73 38
e 73 39
e 73 40
e 73 41
e 73 42
e 73 44
e 73 45
e 73 46
e 73 47
e 73 48
e 73 49
e 73 50
e 73 51
e 73 52
e 73 53
e 73 54
e 73 55
e 73 56
e 73 57
e 73 58
e 73 59
e 73 60
e 73 61
e 73 62
e 73 63
e 73 64
e 73 65
e 73 66
e 73 67
e 73 68
e 73 69
e 73 70
e 73 71
e 73 72
e 74 1
e 74 2
e 74 3
e 74 4
e 74 5
e 74 7
e 74 8
e 74 10
e 74 11
e 74 12
e 74 13
e 74 15
e 74 17
e 74 18
e 74 19
e 74 21
e 74 22
e 74 24
e 74 25
e 74 26
e 74 27
e 74 28
e 74 29
e 74 31
e 74 32
e 74 33
e 74 34
e 74 35
e 74 36
e 74 37
e 74 38
e 74 40
e 74 41
e 74 42
e 74 43
e 74 44
e 74 45
e 74 46
e 74 47
e 74 48
e 74 49
e 74 50
e 74 51
e 74 52
e 74 53
e 74 54
e 74 55
e 74 56
e 74 57
e 74 58
e 74 59
e 74 60
e 74 61
e 74 63
e 74 64
e 74 65
e 74 67
e 74 68
e 74 69
e 74 70
e 74 71
e 74 72
e 74 73
e 75 1
e 75 2
e 75 3
e 75 4
e 75 5
e 75 6
e 75 7
e 75 8
e 75 9
e 75 10
e 75 11
e 75 12
e 75 13
e 75 14
e 75 15
e 75 16
e 75 17
e 75 18
e 75 19
e 75 20
e 75 21
e 75 22
e 75 23
e 75 24
e 75 25
e 75 26
e 75 27
e 75 28
e 75 29
e 75 30
e 75 31
e 75 33
e 75 34
e 75 36
e 75 37
e 75 38
e 75 39
e 75 40
e 75 41
e 75 42
e 75 43
e 75 44
e 75 45
e 75 46
e 75 47
e 75 48
e 75 49
e 75 50
e 75 51
e 75 52
e 75 53
e 75 54
e 75 55
e 75 56
e 75 57
e 75 58
e 75 59
e 75 60
e 75 61
e 75 62
e 75 63
e 75 64
e 75 65
e 75 66
e 75 67
e 75 68
e 75 69
e 75 70
e 75 71
e 75 72
e 75 73
e 75 74
e 76 2
e 76 3
e 76 4
e 76 5
e 76 6
e 76 7
e 76 8
e 76 9
e 76 10
e 76 11
e 76 12
e 76 13
e 76 15
e 76 16
e 76 17
e 76 18
e 76 19
e 76 20
e 76 21
e 76 22
e 76 23
e 76 24
e 76 25
e 76 27
e 76 28
e 76 30
e 76 31
e 76 32
e 76 33
e 76 34
e 76 35
e 76 36
e 76 37
e 76 38
e 76 39
e 76 40
e 76 41
e 76 42
e 76 43
e 76 44
e 76 46
e 76 47
e 76 49
e 76 50
e 76 51
e 76 53
e 76 54
e 76 55
e 76 56
e 76 57
e 76 58
e 76 59
e 76 60
e 76 61
e 76 62
e 76 63
e 76 64
e 76 65
e 76 66
e 76 67
e 76 68
e 76 69
e 76 70
e 76 71
e 76 72
e 76 73
e 76 75
e 77 1
e 77 2
e 77 3
e 77 4
e 77 5
e 77 6
e 77 7
e 77 8
e 77 11
e 77 12
e 77 13
e 77 14
e 77 15
e 77 17
e 77 18
e 77 20
e 77 21
e 77 22
e 77 23
e 77 24
e 77 25
e 77 26
e 77 27
e 77 28
e 77 29
e 77 31
e 77 32
e 77 33
e 77 34
e 77 35
e 77 36
e 77 37
e 77 38
e 77 39
e 77 40
e 77 41
e 77 42
e 77 43
e 77 44
e 77 45
e 77 46
e 77 47
e 77 48
e 77 49
e 77 50
e 77 51
e 77 52
e 77 53
e 77 54
e 77 55
e 77 57
e 77 58
e 77 59
e 77 60
e 77 61
e 77 62
e 77 63
e 77 64
e 77 65
e 77 66
e 77 67
e 77 68
e 77 69
e 77 70
e 77 71
e 77 72
e 77 73
e 77 74
e 77 75
e 77 76
e 78 3
e 78 4
e 78 5
e 78 7
e 78 8
e 78 9
e 78 10
e 78 11
e 78 13
e 78 15
e 78 16
e 78 17
e 78 18
e 78 19
e 78 20
e 78 21
e 78 22
e 78 23
e 78 24
e 78 25
e 78 28
e 78 29
e 78 30
e 78 31
e 78 32
e 78 33
e 78 34
e 78 35
e 78 36
e 78 37
e 78 38
e 78 39
e 78 41
e 78 42
e 78 43
e 78 44
e 78 45
e 78 46
e 78 47
e 78 48
e 78 49
e 78 50
e 78 51
e 78 52
e 78 53
e 78 54
e 78 55
e 78 56
e 78 57
e 78 58
e 78 59
e 78 60
e 78 61
e 78 62
e 78 63
e 78 65
e 78 66
e 78 67
e 78 68
e 78 69
e 78 70
e 78 71
e 78 72
e 78 73
e 78 74
e 78 75
e 78 76
e 78 77
e 79 1
e 79 2
e 79 4
e 79 5
e 79 6
e 79 7
e 79 8
e 79 10
e 79 11
e 79 14
e 79 15
e 79 16
e 79 18
e 79 19
e 79 20
e 79 21
e 79 22
e 79 23
e 79 24
e 79 25
e 79 26
e 79 27
e 79 28
e 79 29
e 79 30
e 79 31
e 79 32
e 79 33
e 79 34
e 79 35
e 79 36
e 79 37
e 79 38
e 79 39
e 79 40
e 79 41
e 79 43
e 79 44
e 79 45
e 79 46
e 79 47
e 79 49
e 79 50
e 79 51
e 79 52
e 79 53
e 79 54
e 79 55
e 79 56
e 79 58
e 79 59
e 79 62
e 79 63
e 79 64
e 79 65
e 79 66
e 79 67
e 79 68
e 79 69
e 79 70
e 79 71
e 79 72
e 79 73
e 79 74
e 79 75
e 79 76
e 79 77
e 79 78
e 80 2
e 80 3
e 80 4
e 80 5
e 80 6
e 80 7
e 80 8
e 80 9
e 80 10
e 80 11
e 80 12
e 80 13
e 80 14
e 80 15
e 80 16
e 80 17
e 80 18
e 80 19
e 80 20
e 80 21
e 80 22
e 80 23
e 80 24
e 80 25
e 80 26
e 80 28
e 80 29
e 80 30
e 80 32
e 80 33
e 80 34
e 80 35
e 80 36
e 80 37
e 80 38
e 80 39
e 80 40
e 80 43
e 80 45
e 80 46
e 80 47
e 80 48
e 80 50
e 80 51
e 80 52
e 80 53
e 80 54
e 80 55
e 80 56
e 80 57
e 80 58
e 80 59
e 80 60
e 80 61
e 80 62
e 80 63
e 80 66
e 80 67
e 80 68
e 80 69
e 80 70
e 80 71
e 80 72
e 80 73
e 80 74
e 80 75
e 80 76
e 80 78
e 80 79
e 81 1
e 81 2
e 81 3
e 81 4
e 81 5
e 81 6
e 81 7
e 81 8
e 81 9
e 81 10
e 81 11
e 81 12
e 81 13
e 81 14
e 81 15
e 81 16
e 81 17
e 81 18
e 81 19
e 81 20
e 81 21
e 81 22
e 81 23
e 81 24
e 81 25
e 81 26
e 81 27
e 81 28
e 81 29
e 81 30
e 81 31
e 81 32
e 81 33
e 81 34
e 81 36
e 81 37
e 81 38
e 81 39
e 81 41
e 81 42
e 81 43
e 81 44
e 81 45
e 81 46
e 81 47
e 81 48
e 81 49
e 81 50
e 81 51
e 81 52
e 81 53
e 81 54
e 81 55
e 81 56
e 81 57
e 81 58
e 81 59
e 81 60
e 81 61
e 81 62
e 81 63
e 81 66
e 81 67
e 81 68
e 81 69
e 81 70
e 81 71
e 81 72
e 81 73
e 81 75
e 81 76
e 81 77
e 81 78
e 81 79
e 81 80
e 82 1
e 82 2
e 82 3
e 82 4
e 82 5
e 82 7
e 82 8
e 82 9
e 82 10
e 82 11
e 82 12
e 82 14
e 82 16
e 82 17
e 82 19
e 82 20
e 82 21
e 82 22
e 82 23
e 82 25
e 82 27
e 82 30
e 82 31
e 82 32
e 82 33
e 82 34
e 82 35
e 82 36
e 82 37
e 82 38
e 82 39
e 82 40
e 82 41
e 82 42
e 82 43
e 82 44
e 82 45
e 82 46
e 82 47
e 82 48
e 82 49
e 82 50
e 82 51
e 82 52
e 82 54
e 82 55
e 82 56
e 82 57
e 82 58
e 82 59
e 82 60
e 82 61
e 82 62
e 82 63
e 82 64
e 82 65
e 82 66
e 82 67
e 82 68
e 82 70
e 82 71
e 82 72
e 82 73
e 82 74
e 82 75
e 82 77
e 82 78
e 82 79
e 82 80
e 82 81
e 83 1
e 83 2
e 83 3
e 83 4
e 83 5
e 83 7
e 83 8
e 83 9
e 83 10
e 83 11
e 83 13
e 83 14
e 83 16
e 83 17
e 83 18
e 83 19
e 83 20
e 83 21
e 83 22
e 83 23
e 83 24
e 83 25
e 83 26
e 83 27
e 83 28
e 83 29
e 83 30
e 83 31
e 83 33
e 83 34
e 83 35
e 83 36
e 83 38
e 83 39
e 83 40
e 83 41
e 83 42
e 83 43
e 83 44
e 83 46
e 83 47
e 83 48
e 83 49
e 83 50
e 83 51
e 83 52
e 83 53
e 83 54
e 83 55
e 83 56
e 83 57
e 83 58
e 83 59
e 83 60
e 83 61
e 83 62
e 83 63
e 83 64
e 83 65
e 83 66
e 83 67
e 83 68
e 83 69
e 83 70
e 83 71
e 83 72
e 83 73
e 83 74
e 83 75
e 83 76
e 83 77
e 83 78
e 83 79
e 83 80
e 83 82
e 84 1
e 84 2
e 84 3
e 84 4
e 84 5
e 84 6
e 84 7
e 84 8
e 84 9
e 84 11
e 84 12
e 84 13
e 84 14
e 84 15
e 84 16
e 84 17
e 84 18
e 84 19
e 84 20
e 84 21
e 84 22
e 84 24
e 84 25
e 84 26
e 84 27
e 84 28
e 84 30
e 84 31
e 84 32
e 84 33
e 84 34
e 84 35
e 84 36
e 84 39
e 84 40
e 84 41
e 84 42
e 84 43
e 84 44
e 84 45
e 84 46
e 84 47
e 84 49
e 84 50
e 84 51
e 84 52
e 84 53
e 84 54
e 84 56
e 84 58
e 84 59
e 84 60
e 84 61
e 84 62
e 84 63
e 84 64
e 84 65
e 84 67
e 84 68
e 84 69
e 84 70
e 84 71
e 84 72
e 84 73
e 84 74
e 84 75
e 84 76
e 84 77
e 84 78
e 84 79
e 84 80
e 84 81
e 84 82
e 84 83
e 85 1
e 85 2
e 85 3
e 85 4
e 85 5
e 85 6
e 85 7
e 85 8
e 85 10
e 85 11
e 85 12
e 85 13
e 85 14
e 85 15
e 85 16
e 85 17
e 85 19
e 85 20
e 85 21
e 85 22
e 85 23
e 85 24
e 85 25
e 85 26
e 85 27
e 85 28
e 85 29
e 85 30
e 85 32
e 85 33
e 85 34
e 85 35
e 85 37
e 85 38
e 85 39
e 85 40
e 85 41
e 85 42
e 85 43
e 85 44
e 85 45
e 85 46
e 85 47
e 85 48
e 85 49
e 85 50
e 85 51
e 85 53
e 85 54
e 85 55
e 85 56
e 85 57
e 85 58
e 85 59
e 85 60
e 85 61
e 85 62
e 85 63
e 85 64
e 85 65
e 85 66
e 85 67
e 85 68
e 85 69
e 85 70
e 85 72
e 85 73
e 85 74
e 85 75
e 85 76
e 85 78
e 85 79
e 85 80
e 85 81
e 85 82
e 85 83
e 85 84
e 86 1
e 86 2
e 86 3
e 86 4
e 86 5
e 86 6
e 86 7
e 86 8
e 86 9
e 86 10
e 86 12
e 86 14
e 86 15
e 86 16
e 86 17
e 86 18
e 86 19
e 86 20
e 86 21
e 86 22
e 86 23
e 86 24
e 86 25
e 86 26
e 86 27
e 86 28
e 86 29
e 86 30
e 86 31
e 86 32
e 86 33
e 86 34
e 86 35
e 86 36
e 86 37
e 86 38
e 86 39
e 86 40
e 86 41
e 86 42
e 86 43
e 86 44
e 86 45
e 86 46
e 86 47
e 86 48
e 86 49
e 86 50
e 86 51
e 86 52
e 86 53
e 86 54
e 86 56
e 86 57
e 86 58
e 86 59
e 86 60
e 86 61
e 86 62
e 86 63
e 86 64
e 86 65
e 86 67
e 86 68
e 86 69
e 86 70
e 86 71
e 86 72
e 86 73
e 86 74
e 86 76
e 86 77
e 86 78
e 86 79
e 86 80
e 86 82
e 86 83
e 86 84
e 86 85
e 87 1
e 87 3
e 87 4
e 87 5
e 87 6
e 87 7
e 87 8
e 87 10
e 87 11
e 87 12
e 87 13
e 87 14
e 87 15
e 87 16
e 87 18
e 87 19
e 87 20
e 87 21
e 87 22
e 87 23
e 87 24
e 87 25
e 87 26
e 87 27
e 87 30
e 87 32
e 87 33
e 87 34
e 87 35
e 87 36
e 87 37
e 87 38
e 87 39
e 87 40
e 87 41
e 87 42
e 87 43
e 87 44
e 87 45
e 87 46
e 87 47
e 87 48
e 87 49
e 87 50
e 87 51
e 87 52
e 87 53
e 87 54
e 87 55
e 87 56
e 87 57
e 87 58
e 87 59
e 87 60
e 87 61
e 87 62
e 87 63
e 87 64
e 87 65
e 87 66
e 87 68
e 87 69
e 87 70
e 87 71
e 87 73
e 87 74
e 87 76
e 87 77
e 87 78
e 87 79
e 87 80
e 87 81
e 87 82
e 87 83
e 87 84
e 87 86
e 88 1
e 88 2
e 88 3
e 88 4
e 88 5
e 88 6
e 88 7
e 88 8
e 88 9
e 88 10
e 88 11
e 88 12
e 88 13
e 88 14
e 88 15
e 88 16
e 88 17
e 88 18
e 88 19
e 88 20
e 88 21
e 88 22
e 88 23
e 88 24
e 88 25
e 88 26
e 88 27
e 88 29
e 88 30
e 88 31
e 88 32
e 88 33
e 88 34
e 88 35
e 88 36
e 88 37
e 88 38
e 88 40
e 88 41
e 88 42
e 88 47
e 88 48
e 88 49
e 88 50
e 88 51
e 88 53
e 88 54
e 88 56
e 88 57
e 88 58
e 88 59
e 88 60
e 88 61
e 88 62
e 88 63
e 88 64
e 88 65
e 88 66
e 88 67
e 88 68
e 88 69
e 88 70
e 88 71
e 88 72
e 88 73
e 88 74
e 88 75
e 88 77
e 88 78
e 88 79
e 88 80
e 88 81
e 88 82
e 88 83
e 88 84
e 88 85
e 88 86
e 88 87
e 89 1
e 89 3
e 89 4
e 89 5
e 89 6
e 89 7
e 89 8
e 89 9
e 89 10
e 89 12
e 89 13
e 89 14
e 89 15
e 89 17
e 89 19
e 89 21
e 89 22
e 89 23
e 89 24
e 89 25
e 89 26
e 89 27
e 89 28
e 89 29
e 89 30
e 89 31
e 89 32
e 89 33
e 89 34
e 89 35
e 89 36
e 89 38
e 89 39
e 89 40
e 89 41
e 89 42
e 89 44
e 89 45
e 89 46
e 89 47
e 89 48
e 89 50
e 89 51
e 89 52
e 89 53
e 89 54
e 89 55
e 89 56
e 89 57
e 89 58
e 89 59
e 89 60
e 89 61
e 89 62
e 89 64
e 89 65
e 89 66
e 89 68
e 89 69
e 89 70
e 89 71
e 89 72
e 89 73
e 89 74
e 89 75
e 89 78
e 89 79
e 89 80
e 89 81
e 89 82
e 89 83
e 89 84
e 89 85
e 89 86
e 89 87
e 89 88
e 90 1
e 90 2
e 90 3
e 90 4
e 90 5
e 90 6
e 90 7
e 90 8
e 90 9
e 90 10
e 90 11
e 90 12
e 90 13
e 90 14
e 90 15
e 90 16
e 90 17
e 90 19
e 90 20
e 90 22
e 90 23
e 90 24
e 90 25
e 90 26
e 90 27
e 90 28
e 90 29
e 90 30
e 90 31
e 90 33
e 90 34
e 90 35
e 90 36
e 90 37
e 90 38
e 90 39
e 90 40
e 90 41
e 90 42
e 90 44
e 90 45
e 90 46
e 90 47
e 90 48
e 90 49
e 90 50
e 90 51
e 90 52
e 90 53
e 90 54
e 90 55
e 90 56
e 90 57
e 90 58
e 90 59
e 90 60
e 90 61
e 90 62
e 90 63
e 90 64
e 90 65
e 90 66
e 90 67
e 90 68
e 90 69
e 90 71
e 90 72
e 90 73
e 90 74
e 90 75
e 90 76
e 90 77
e 90 78
e 90 79
e 90 81
e 90 82
e 90 83
e 90 84
e 90 85
e 90 86
e 90 87
e 90 88
e 90 89
e 91 1
e 91 3
e 91 4
e 91 5
e 91 6
e 91 7
e 91 8
e 91 11
e 91 12
e 91 13
e 91 14
e 91 15
e 91 16
e 91 17
e 91 18
e 91 19
e 91 21
e 91 22
e 91 23
e 91 24
e 91 25
e 91 26
e 91 27
e 91 28
e 91 29
e 91 30
e 91 31
e 91 32
e 91 33
e 91 34
e 91 35
e 91 36
e 91 37
e 91 38
e 91 39
e 91 40
e 91 41
e 91 43
e 91 44
e 91 45
e 91 46
e 91 47
e 91 48
e 91 49
e 91 50
e 91 52
e 91 54
e 91 55
e 91 56
e 91 57
e 91 58
e 91 60
e 91 62
e 91 64
e 91 65
e 91 66
e 91 67
e 91 68
e 91 69
e 91 70
e 91 71
e 91 72
e 91 73
e 91 74
e 91 75
e 91 76
e 91 77
e 91 78
e 91 80
e 91 81
e 91 82
e 91 83
e 91 84
e 91 85
e 91 86
e 91 87
e 91 88
e 91 90
e 92 1
e 92 2
e 92 3
e 92 4
e 92 5
e 92 6
e 92 7
e 92 8
e 92 9
e 92 10
e 92 11
e 92 15
e 92 16
e 92 17
e 92 18
e 92 19
e 92 20
e 92 21
e 92 22
e 92 23
e 92 24
e 92 25
e 92 27
e 92 29
e 92 30
e 92 31
e 92 32
e 92 34
e 92 35
e 92 36
e 92 38
e 92 39
e 92 40
e 92 41
e 92 42
e 92 43
e 92 44
e 92 45
e 92 46
e 92 47
e 92 48
e 92 50
e 92 51
e 92 53
e 92 55
e 92 56
e 92 57
e 92 58
e 92 59
e 92 60
e 92 61
e 92 62
e 92 63
e 92 64
e 92 66
e 92 67
e 92 69
e 92 70
e 92 71
e 92 72
e 92 73
e 92 74
e 92 75
e 92 76
e 92 77
e 92 78
e 92 79
e 92 80
e 92 81
e 92 82
e 92 83
e 92 85
e 92 86
e 92 87
e 92 88
e 92 89
e 92 90
e 92 91
e 93 1
e 93 2
e 93 3
e 93 4
e 93 5
e 93 6
e 93 9
e 93 10
e 93 11
e 93 12
e 93 13
e 93 14
e 93 15
e 93 16
e 93 17
e 93 18
e 93 19
e 93 20
e 93 21
e 93 22
e 93 24
e 93 25
e 93 27
e 93 28
e 93 29
e 93 30
e 93 31
e 93 32
e 93 33
e 93 34
e 93 35
e 93 36
e 93 37
e 93 38
e 93 39
e 93 40
e 93 41
e 93 42
e 93 44
e 93 45
e 93 46
e 93 47
e 93 48
e 93 49
e 93 50
e 93 51
e 93 52
e 93 53
e 93 55
e 93 56
e 93 57
e 93 58
e 93 59
e 93 60
e 93 62
e 93 63
e 93 64
e 93 65
e 93 66
e 93 67
e 93 68
e 93 69
e 93 70
e 93 71
e 93 72
e 93 73
e 93 75
e 93 77
e 93 78
e 93 79
e 93 80
e 93 81
e 93 82
e 93 83
e 93 84
e 93 85
e 93 86
e 93 87
e 93 88
e 93 89
e 93 90
e 93 91
e 93 92
e 94 1
e 94 2
e 94 3
e 94 4
e 94 5
e 94 6
e 94 7
e 94 8
e 94 10
e 94 11
e 94 12
e 94 13
e 94 14
e 94 15
e 94 16
e 94 17
e 94 18
e 94 19
e 94 20
e 94 21
e 94 22
e 94 23
e 94 24
e 94 25
e 94 26
e 94 27
e 94 28
e 94 29
e 94 30
e 94 31
e 94 32
e 94 34
e 94 35
e 94 36
e 94 37
e 94 38
e 94 39
e 94 40
e 94 41
e 94 42
e 94 43
e 94 44
e 94 45
e 94 46
e 94 47
e 94 49
e 94 50
e 94 51
e 94 52
e 94 53
e 94 54
e 94 55
e 94 56
e 94 57
e 94 59
e 94 60
e 94 61
e 94 62
e 94 63
e 94 65
e 94 66
e 94 67
e 94 68
e 94 69
e 94 70
e 94 71
e 94 72
e 94 73
e 94 74
e 94 75
e 94 76
e 94 77
e 94 78
e 94 79
e 94 80
e 94 81
e 94 82
e 94 84
e 94 85
e 94 86
e 94 87
e 94 88
e 94 89
e 94 90
e 94 91
e 94 92
e 94 93
e 95 1
e 95 2
e 95 3
e 95 4
e 95 5
e 95 6
e 95 7
e 95 8
e 95 9
e 95 11
e 95 12
e 95 13
e 95 14
e 95 15
e 95 16
e 95 17
e 95 19
e 95 20
e 95 21
e 95 22
e 95 23
e 95 24
e 95 25
e 95 26
e 95 27
e 95 28
e 95 29
e 95 31
e 95 34
e 95 35
e 95 36
e 95 37
e 95 38
e 95 39
e 95 41
e 95 42
e 95 43
e 95 45
e 95 46
e 95 47
e 95 48
e 95 49
e 95 50
e 95 51
e 95 52
e 95 53
e 95 54
e 95 55
e 95 56
e 95 57
e 95 58
e 95 59
e 95 60
e 95 61
e 95 62
e 95 63
e 95 64
e 95 65
e 95 69
e 95 70
e 95 72
e 95 73
e 95 76
e 95 77
e 95 78
e 95 79
e 95 80
e 95 81
e 95 82
e 95 83
e 95 84
e 95 85
e 95 86
e 95 87
e 95 88
e 95 89
e 95 90
e 95 91
e 95 92
e 95 93
e 95 94
e 96 1
e 96 2
e 96 3
e 96 4
e 96 5
e 96 6
e 96 7
e 96 9
e 96 10
e 96 11
e 96 12
e 96 13
e 96 14
e 96 15
e 96 16
e 96 17
e 96 19
e 96 20
e 96 21
e 96 22
e 96 23
e 96 24
e 96 25
e 96 26
e 96 27
e 96 28
e 96 29
e 96 30
e 96 31
e 96 33
e 96 34
e 96 35
e 96 36
e 96 37
e 96 38
e 96 39
e 96 40
e 96 41
e 96 42
e 96 43
e 96 44
e 96 45
e 96 46
e 96 48
e 96 49
e 96 50
e 96 51
e 96 52
e 96 53
e 96 54
e 96 55
e 96 56
e 96 57
e 96 58
e 96 59
e 96 60
e 96 62
e 96 63
e 96 66
e 96 67
e 96 68
e 96 69
e 96 71
e 96 72
e 96 73
e 96 74
e 96 75
e 96 76
e 96 77
e 96 78
e 96 79
e 96 80
e 96 81
e 96 82
e 96 83
e 96 84
e 96 85
e 96 86
e 96 87
e 96 88
e 96 89
e 96 90
e 96 92
e 96 94
e 96 95
e 97 1
e 97 2
e 97 3
e 97 4
e 97 5
e 97 6
e 97 7
e 97 8
e 97 9
e 97 10
e 97 11
e 97 12
e 97 13
e 97 14
e 97 15
e 97 17
e 97 18
e 97 19
e 97 20
e 97 21
e 97 22
e 97 23
e 97 24
e 97 25
e 97 26
e 97 27
e 97 28
e 97 29
e 97 30
e 97 31
e 97 32
e 97 33
e 97 34
e 97 35
e 97 36
e 97 37
e 97 38
e 97 39
e 97 40
e 97 41
e 97 42
e 97 43
e 97 44
e 97 45
e 97 46
e 97 47
e 97 48
e 97 49
e 97 50
e 97 51
e 97 52
e 97 53
e 97 54
e 97 55
e 97 56
e 97 57
e 97 58
e 97 59
e 97 60
e 97 61
e 97 62
e 97 64
e 97 65
e 97 66
e 97 67
e 97 68
e 97 69
e 97 70
e 97 71
e 97 72
e 97 74
e 97 75
e 97 76
e 97 77
e 97 79
e 97 80
e 97 81
e 97 82
e 97 83
e 97 84
e 97 85
e 97 86
e 97 87
e 97 88
e 97 89
e 97 90
e 97 91
e 97 92
e 97 93
e 97 94
e 97 95
e 97 96
e 98 1
e 98 2
e 98 4
e 98 5
e 98 6
e 98 7
e 98 8
e 98 9
e 98 10
e 98 12
e 98 13
e 98 14
e 98 15
e 98 16
e 98 17
e 98 18
e 98 20
e 98 21
e 98 22
e 98 23
e 98 24
e 98 25
e 98 27
e 98 28
e 98 29
e 98 30
e 98 31
e 98 32
e 98 33
e 98 35
e 98 36
e 98 37
e 98 38
e 98 39
e 98 40
e 98 42
e 98 43
e 98 45
e 98 46
e 98 47
e 98 48
e 98 49
e 98 50
e 98 51
e 98 52
e 98 53
e 98 54
e 98 55
e 98 56
e 98 57
e 98 58
e 98 59
e 98 60
e 98 61
e 98 62
e 98 63
e 98 64
e 98 65
e 98 67
e 98 68
e 98 70
e 98 71
e 98 72
e 98 73
e 98 75
e 98 76
e 98 77
e 98 78
e 98 79
e 98 80
e 98 82
e 98 84
e 98 86
e 98 87
e 98 88
e 98 89
e 98 90
e 98 91
e 98 92
e 98 93
e 98 94
e 98 95
e 99 1
e 99 2
e 99 3
e 99 4
e 99 5
e 99 6
e 99 7
e 99 8
e 99 9
e 99 10
e 99 12
e 99 13
e 99 14
e 99 15
e 99 16
e 99 18
e 99 19
e 99 20
e 99 21
e 99 22
e 99 23
e 99 24
e 99 25
e 99 26
e 99 28
e 99 29
e 99 30
e 99 32
e 99 33
e 99 34
e 99 35
e 99 37
e 99 38
e 99 39
e 99 40
e 99 41
e 99 42
e 99 43
e 99 44
e 99 46
e 99 47
e 99 48
e 99 50
e 99 51
e 99 53
e 99 54
e 99 55
e 99 56
e 99 57
e 99 58
e 99 59
e 99 60
e 99 61
e 99 62
e 99 63
e 99 64
e 99 65
e 99 66
e 99 67
e 99 68
e 99 70
e 99 71
e 99 72
e 99 73
e 99 74
e 99 75
e 99 76
e 99 77
e 99 78
e 99 79
e 99 80
e 99 81
e 99 82
e 99 84
e 99 85
e 99 86
e 99 87
e 99 88
e 99 89
e 99 90
e 99 91
e 99 92
e 99 93
e 99 95
e 99 96
e 100 1
e 100 2
e 100 3
e 100 4
e 100 5
e 100 6
e 100 7
e 100 8
e 100 10
e 100 11
e 100 12
e 100 13
e 100 14
e 100 15
e 100 16
e 100 17
e 100 18
e 100 19
e 100 20
e 100 21
e 100 24
e 100 25
e 100 26
e 100 27
e 100 28
e 100 29
e 100 30
e 100 31
e 100 32
e 100 33
e 100 34
e 100 35
e 100 36
e 100 37
e 100 38
e 100 39
e 100 40
e 100 41
e 100 42
e 100 43
e 100 44
e 100 45
e 100 46
e 100 47
e 100 48
e 100 49
e 100 50
e 100 51
e 100 52
e 100 53
e 100 54
e 100 55
e 100 56
e 100 58
e 100 59
e 100 60
e 100 61
e 100 62
e 100 63
e 100 65
e 100 66
e 100 67
e 100 68
e 100 69
e 100 70
e 100 71
e 100 73
e 100 74
e 100 75
e 100 76
e 100 77
e 100 78
e 100 79
e 100 81
e 100 82
e 100 85
e 100 86
e 100 87
e 100 88
e 100 89
e 100 90
e 100 91
e 100 93
e 100 94
e 100 95
e 100 97
e 100 98
n 1 18
n 2 20
n 3 3
n 4 20
n 5 20
n 6 10
n 7 11
n 8 7
n 9 5
n 10 10
n 11 12
n 12 19
n 13 20
n 14 12
n 15 17
n 16 1
n 17 18
n 18 8
n 19 14
n 20 16
n 21 9
n 22 13
n 23 17
n 24 20
n 25 3
n 26 19
n 27 3
n 28 9
n 29 19
n 30 16
n 31 16
n 32 17
n 33 16
n 34 18
n 35 17
n 36 15
n 37 7
n 38 7
n 39 1
n 40 12
n 41 17
n 42 13
n 43 11
n 44 16
n 45 4
n 46 7
n 47 17
n 48 2
n 49 15
n 50 10
n 51 17
n 52 3
n 53 3
n 54 14
n 55 2
n 56 6
n 57 13
n 58 4
n 59 14
n 60 11
n 61 20
n 62 9
n 63 8
n 64 16
n 65 7
n 66 4
n 67 11
n 68 14
n 69 11
n 70 12
n 71 5
n 72 7
n 73 4
n 74 15
n 75 3
n 76 8
n 77 2
n 78 19
n 79 9
n 80 17
n 81 9
n 82 6
n 83 19
n 84 11
n 85 19
n 86 1
n 87 16
n 88 12
n 89 5
n 90 10
n 91 2
n 92 5
n 93 19
n 94 10
n 95 20
n 96 5
n 97 13
n 98 11
n 99 18
n 100 4
